c SAT Generator for power-law distributed variable frequencies
c -g u -v 20 -c 91 -k 3 -p 2.750000 -b 3.200000 -f /home/schmidt/Devel/ni-kop-sat/data/ensemble/ruf20-91/ruf20-91-162 -u 1 -U 1 -s 1289927931
p cnf 20 91
1 13 19 0
-1 6 -18 0
-13 -15 -18 0
2 -10 20 0
2 7 20 0
1 2 3 0
-4 -6 11 0
-9 -10 -18 0
-1 -11 16 0
1 4 5 0
5 13 20 0
1 -2 10 0
-7 -10 -20 0
-5 -11 17 0
-7 -10 12 0
-1 5 -9 0
6 -16 -20 0
4 -13 -16 0
4 8 -19 0
-1 7 -10 0
-13 15 20 0
-10 13 -19 0
2 -12 17 0
-3 12 -20 0
-3 9 15 0
8 -9 15 0
-1 -18 19 0
-8 -11 15 0
-1 -4 9 0
1 7 -9 0
1 -4 5 0
6 -7 -13 0
-1 2 -6 0
1 14 15 0
-7 11 15 0
-8 9 10 0
1 -15 18 0
-13 -15 -17 0
-7 9 10 0
3 11 19 0
-1 10 -11 0
-1 6 -7 0
3 14 16 0
2 9 19 0
6 -12 17 0
2 3 -19 0
6 -8 18 0
1 3 10 0
5 13 -15 0
-5 -6 17 0
-10 16 19 0
6 8 -12 0
-4 -18 19 0
2 15 18 0
-4 -15 -18 0
1 -2 -4 0
-7 12 -18 0
10 -15 19 0
-8 18 19 0
-6 8 11 0
-7 10 18 0
7 -8 16 0
-2 -11 -12 0
-4 14 16 0
-1 9 -16 0
10 19 -20 0
-4 -10 14 0
2 -5 -18 0
1 8 -19 0
-4 15 -20 0
7 -12 14 0
4 7 20 0
-8 10 18 0
-4 -6 -9 0
-2 -9 -15 0
-10 -13 -15 0
-4 8 -14 0
-7 11 -17 0
-14 16 -17 0
5 -15 -20 0
-9 13 18 0
-6 -12 -14 0
-4 5 -12 0
3 4 17 0
-6 15 19 0
-3 11 18 0
-3 -8 -9 0
-3 10 -20 0
-2 -7 12 0
-6 12 19 0
6 -9 -19 0
